3 
4 
5  00 13 37 53 
6  08 22 37 54 
7  09 24 39 54 
8  09 24 39 54 
9  09 24 39 56 
10  11 26 41 56 
11  11 26 41 56 
12  11 26 41 56 
13  11 26 41 56 
14  11 26 41 55 
15  09 24 39 54 
16  09 24 39 54 
17  09 24 39 54 
18  09 24 39 55 
19  10 25 40 55 
20  10 25 40 55 
21  10 25 55 
22  
23  
0 
